c Optimised CNF encoding for 9x9 Sudoku
c Source: sudoku_9x9_17clue_02.txt
c Variables: 303  Clauses: 2866
p cnf 303 2866
1 2 3 4 5 6 7 0
8 9 10 11 12 13 14 0
15 16 17 18 19 20 0
21 22 23 24 25 26 0
27 28 29 30 31 0
32 33 34 35 36 37 0
38 39 40 41 42 43 0
44 45 46 47 48 49 0
50 51 52 53 54 0
55 56 57 58 59 0
60 61 62 63 0
64 65 66 0
67 68 69 70 71 0
72 73 74 0
75 76 77 78 79 0
80 81 82 83 84 85 0
86 87 88 89 90 91 0
92 93 94 95 96 0
97 98 99 100 101 0
102 103 104 105 106 0
107 108 109 110 0
111 112 113 0
114 115 116 117 118 0
119 120 121 122 123 0
124 125 126 0
127 128 129 130 0
131 132 133 134 135 136 0
137 138 139 140 141 0
142 143 144 145 0
146 147 148 149 150 0
151 152 153 154 155 156 0
157 158 159 160 161 0
162 163 164 165 0
166 167 168 169 0
170 171 172 173 174 0
175 176 177 178 0
179 180 181 182 183 184 0
185 186 187 188 189 0
190 191 192 193 194 195 0
196 197 198 0
199 200 201 202 203 0
204 205 206 207 208 209 210 0
211 212 213 214 215 0
216 217 218 219 220 0
221 222 223 224 0
225 226 227 0
228 229 230 231 0
232 233 234 0
235 236 237 238 0
239 240 241 242 0
243 244 245 246 247 248 0
249 250 251 252 253 0
254 255 256 257 258 0
259 260 261 262 0
263 264 265 266 0
267 268 269 0
270 271 272 0
273 274 275 276 277 0
278 279 280 281 282 0
283 284 285 286 0
287 288 289 290 291 0
292 293 294 295 0
296 297 298 299 0
300 301 302 303 0
-1 -2 0
-1 -3 0
-1 -4 0
-1 -5 0
-1 -6 0
-1 -7 0
-2 -3 0
-2 -4 0
-2 -5 0
-2 -6 0
-2 -7 0
-3 -4 0
-3 -5 0
-3 -6 0
-3 -7 0
-4 -5 0
-4 -6 0
-4 -7 0
-5 -6 0
-5 -7 0
-6 -7 0
-8 -9 0
-8 -10 0
-8 -11 0
-8 -12 0
-8 -13 0
-8 -14 0
-9 -10 0
-9 -11 0
-9 -12 0
-9 -13 0
-9 -14 0
-10 -11 0
-10 -12 0
-10 -13 0
-10 -14 0
-11 -12 0
-11 -13 0
-11 -14 0
-12 -13 0
-12 -14 0
-13 -14 0
-15 -16 0
-15 -17 0
-15 -18 0
-15 -19 0
-15 -20 0
-16 -17 0
-16 -18 0
-16 -19 0
-16 -20 0
-17 -18 0
-17 -19 0
-17 -20 0
-18 -19 0
-18 -20 0
-19 -20 0
-21 -22 0
-21 -23 0
-21 -24 0
-21 -25 0
-21 -26 0
-22 -23 0
-22 -24 0
-22 -25 0
-22 -26 0
-23 -24 0
-23 -25 0
-23 -26 0
-24 -25 0
-24 -26 0
-25 -26 0
-27 -28 0
-27 -29 0
-27 -30 0
-27 -31 0
-28 -29 0
-28 -30 0
-28 -31 0
-29 -30 0
-29 -31 0
-30 -31 0
-32 -33 0
-32 -34 0
-32 -35 0
-32 -36 0
-32 -37 0
-33 -34 0
-33 -35 0
-33 -36 0
-33 -37 0
-34 -35 0
-34 -36 0
-34 -37 0
-35 -36 0
-35 -37 0
-36 -37 0
-38 -39 0
-38 -40 0
-38 -41 0
-38 -42 0
-38 -43 0
-39 -40 0
-39 -41 0
-39 -42 0
-39 -43 0
-40 -41 0
-40 -42 0
-40 -43 0
-41 -42 0
-41 -43 0
-42 -43 0
-44 -45 0
-44 -46 0
-44 -47 0
-44 -48 0
-44 -49 0
-45 -46 0
-45 -47 0
-45 -48 0
-45 -49 0
-46 -47 0
-46 -48 0
-46 -49 0
-47 -48 0
-47 -49 0
-48 -49 0
-50 -51 0
-50 -52 0
-50 -53 0
-50 -54 0
-51 -52 0
-51 -53 0
-51 -54 0
-52 -53 0
-52 -54 0
-53 -54 0
-55 -56 0
-55 -57 0
-55 -58 0
-55 -59 0
-56 -57 0
-56 -58 0
-56 -59 0
-57 -58 0
-57 -59 0
-58 -59 0
-60 -61 0
-60 -62 0
-60 -63 0
-61 -62 0
-61 -63 0
-62 -63 0
-64 -65 0
-64 -66 0
-65 -66 0
-67 -68 0
-67 -69 0
-67 -70 0
-67 -71 0
-68 -69 0
-68 -70 0
-68 -71 0
-69 -70 0
-69 -71 0
-70 -71 0
-72 -73 0
-72 -74 0
-73 -74 0
-75 -76 0
-75 -77 0
-75 -78 0
-75 -79 0
-76 -77 0
-76 -78 0
-76 -79 0
-77 -78 0
-77 -79 0
-78 -79 0
-80 -81 0
-80 -82 0
-80 -83 0
-80 -84 0
-80 -85 0
-81 -82 0
-81 -83 0
-81 -84 0
-81 -85 0
-82 -83 0
-82 -84 0
-82 -85 0
-83 -84 0
-83 -85 0
-84 -85 0
-86 -87 0
-86 -88 0
-86 -89 0
-86 -90 0
-86 -91 0
-87 -88 0
-87 -89 0
-87 -90 0
-87 -91 0
-88 -89 0
-88 -90 0
-88 -91 0
-89 -90 0
-89 -91 0
-90 -91 0
-92 -93 0
-92 -94 0
-92 -95 0
-92 -96 0
-93 -94 0
-93 -95 0
-93 -96 0
-94 -95 0
-94 -96 0
-95 -96 0
-97 -98 0
-97 -99 0
-97 -100 0
-97 -101 0
-98 -99 0
-98 -100 0
-98 -101 0
-99 -100 0
-99 -101 0
-100 -101 0
-102 -103 0
-102 -104 0
-102 -105 0
-102 -106 0
-103 -104 0
-103 -105 0
-103 -106 0
-104 -105 0
-104 -106 0
-105 -106 0
-107 -108 0
-107 -109 0
-107 -110 0
-108 -109 0
-108 -110 0
-109 -110 0
-111 -112 0
-111 -113 0
-112 -113 0
-114 -115 0
-114 -116 0
-114 -117 0
-114 -118 0
-115 -116 0
-115 -117 0
-115 -118 0
-116 -117 0
-116 -118 0
-117 -118 0
-119 -120 0
-119 -121 0
-119 -122 0
-119 -123 0
-120 -121 0
-120 -122 0
-120 -123 0
-121 -122 0
-121 -123 0
-122 -123 0
-124 -125 0
-124 -126 0
-125 -126 0
-127 -128 0
-127 -129 0
-127 -130 0
-128 -129 0
-128 -130 0
-129 -130 0
-131 -132 0
-131 -133 0
-131 -134 0
-131 -135 0
-131 -136 0
-132 -133 0
-132 -134 0
-132 -135 0
-132 -136 0
-133 -134 0
-133 -135 0
-133 -136 0
-134 -135 0
-134 -136 0
-135 -136 0
-137 -138 0
-137 -139 0
-137 -140 0
-137 -141 0
-138 -139 0
-138 -140 0
-138 -141 0
-139 -140 0
-139 -141 0
-140 -141 0
-142 -143 0
-142 -144 0
-142 -145 0
-143 -144 0
-143 -145 0
-144 -145 0
-146 -147 0
-146 -148 0
-146 -149 0
-146 -150 0
-147 -148 0
-147 -149 0
-147 -150 0
-148 -149 0
-148 -150 0
-149 -150 0
-151 -152 0
-151 -153 0
-151 -154 0
-151 -155 0
-151 -156 0
-152 -153 0
-152 -154 0
-152 -155 0
-152 -156 0
-153 -154 0
-153 -155 0
-153 -156 0
-154 -155 0
-154 -156 0
-155 -156 0
-157 -158 0
-157 -159 0
-157 -160 0
-157 -161 0
-158 -159 0
-158 -160 0
-158 -161 0
-159 -160 0
-159 -161 0
-160 -161 0
-162 -163 0
-162 -164 0
-162 -165 0
-163 -164 0
-163 -165 0
-164 -165 0
-166 -167 0
-166 -168 0
-166 -169 0
-167 -168 0
-167 -169 0
-168 -169 0
-170 -171 0
-170 -172 0
-170 -173 0
-170 -174 0
-171 -172 0
-171 -173 0
-171 -174 0
-172 -173 0
-172 -174 0
-173 -174 0
-175 -176 0
-175 -177 0
-175 -178 0
-176 -177 0
-176 -178 0
-177 -178 0
-179 -180 0
-179 -181 0
-179 -182 0
-179 -183 0
-179 -184 0
-180 -181 0
-180 -182 0
-180 -183 0
-180 -184 0
-181 -182 0
-181 -183 0
-181 -184 0
-182 -183 0
-182 -184 0
-183 -184 0
-185 -186 0
-185 -187 0
-185 -188 0
-185 -189 0
-186 -187 0
-186 -188 0
-186 -189 0
-187 -188 0
-187 -189 0
-188 -189 0
-190 -191 0
-190 -192 0
-190 -193 0
-190 -194 0
-190 -195 0
-191 -192 0
-191 -193 0
-191 -194 0
-191 -195 0
-192 -193 0
-192 -194 0
-192 -195 0
-193 -194 0
-193 -195 0
-194 -195 0
-196 -197 0
-196 -198 0
-197 -198 0
-199 -200 0
-199 -201 0
-199 -202 0
-199 -203 0
-200 -201 0
-200 -202 0
-200 -203 0
-201 -202 0
-201 -203 0
-202 -203 0
-204 -205 0
-204 -206 0
-204 -207 0
-204 -208 0
-204 -209 0
-204 -210 0
-205 -206 0
-205 -207 0
-205 -208 0
-205 -209 0
-205 -210 0
-206 -207 0
-206 -208 0
-206 -209 0
-206 -210 0
-207 -208 0
-207 -209 0
-207 -210 0
-208 -209 0
-208 -210 0
-209 -210 0
-211 -212 0
-211 -213 0
-211 -214 0
-211 -215 0
-212 -213 0
-212 -214 0
-212 -215 0
-213 -214 0
-213 -215 0
-214 -215 0
-216 -217 0
-216 -218 0
-216 -219 0
-216 -220 0
-217 -218 0
-217 -219 0
-217 -220 0
-218 -219 0
-218 -220 0
-219 -220 0
-221 -222 0
-221 -223 0
-221 -224 0
-222 -223 0
-222 -224 0
-223 -224 0
-225 -226 0
-225 -227 0
-226 -227 0
-228 -229 0
-228 -230 0
-228 -231 0
-229 -230 0
-229 -231 0
-230 -231 0
-232 -233 0
-232 -234 0
-233 -234 0
-235 -236 0
-235 -237 0
-235 -238 0
-236 -237 0
-236 -238 0
-237 -238 0
-239 -240 0
-239 -241 0
-239 -242 0
-240 -241 0
-240 -242 0
-241 -242 0
-243 -244 0
-243 -245 0
-243 -246 0
-243 -247 0
-243 -248 0
-244 -245 0
-244 -246 0
-244 -247 0
-244 -248 0
-245 -246 0
-245 -247 0
-245 -248 0
-246 -247 0
-246 -248 0
-247 -248 0
-249 -250 0
-249 -251 0
-249 -252 0
-249 -253 0
-250 -251 0
-250 -252 0
-250 -253 0
-251 -252 0
-251 -253 0
-252 -253 0
-254 -255 0
-254 -256 0
-254 -257 0
-254 -258 0
-255 -256 0
-255 -257 0
-255 -258 0
-256 -257 0
-256 -258 0
-257 -258 0
-259 -260 0
-259 -261 0
-259 -262 0
-260 -261 0
-260 -262 0
-261 -262 0
-263 -264 0
-263 -265 0
-263 -266 0
-264 -265 0
-264 -266 0
-265 -266 0
-267 -268 0
-267 -269 0
-268 -269 0
-270 -271 0
-270 -272 0
-271 -272 0
-273 -274 0
-273 -275 0
-273 -276 0
-273 -277 0
-274 -275 0
-274 -276 0
-274 -277 0
-275 -276 0
-275 -277 0
-276 -277 0
-278 -279 0
-278 -280 0
-278 -281 0
-278 -282 0
-279 -280 0
-279 -281 0
-279 -282 0
-280 -281 0
-280 -282 0
-281 -282 0
-283 -284 0
-283 -285 0
-283 -286 0
-284 -285 0
-284 -286 0
-285 -286 0
-287 -288 0
-287 -289 0
-287 -290 0
-287 -291 0
-288 -289 0
-288 -290 0
-288 -291 0
-289 -290 0
-289 -291 0
-290 -291 0
-292 -293 0
-292 -294 0
-292 -295 0
-293 -294 0
-293 -295 0
-294 -295 0
-296 -297 0
-296 -298 0
-296 -299 0
-297 -298 0
-297 -299 0
-298 -299 0
-300 -301 0
-300 -302 0
-300 -303 0
-301 -302 0
-301 -303 0
-302 -303 0
21 32 44 50 0
1 8 38 45 51 0
2 9 15 39 46 0
3 10 22 33 40 47 52 0
11 16 27 34 0
4 12 17 23 28 35 41 48 53 0
5 13 18 24 29 42 54 0
6 14 19 25 30 36 0
7 20 26 31 37 43 49 0
67 0
55 60 75 0
56 61 68 76 0
57 62 64 69 72 77 0
58 63 65 70 73 78 0
59 66 71 74 79 0
80 86 102 107 0
81 87 92 97 103 108 111 0
88 98 0
82 89 93 99 104 109 112 0
83 90 94 105 113 0
84 91 95 100 0
85 96 101 106 110 0
114 119 0
115 120 131 137 142 0
116 121 124 127 132 138 0
133 139 143 0
117 122 125 128 134 140 144 0
118 123 126 129 135 145 0
130 136 141 0
146 151 157 166 170 175 0
147 152 158 162 171 0
153 172 0
148 154 159 163 167 173 176 0
149 155 177 0
150 156 160 164 168 178 0
161 165 169 174 0
179 190 199 0
180 191 200 204 211 216 0
181 185 192 196 205 212 0
193 201 206 213 217 0
186 207 214 0
182 187 194 197 202 208 215 218 0
183 188 209 219 0
184 189 195 198 203 210 220 0
221 0
228 235 239 0
222 240 0
223 225 229 232 236 241 0
224 226 230 233 237 242 0
227 231 234 238 0
243 249 254 0
244 250 263 267 270 0
259 264 268 0
245 251 255 260 265 269 271 0
246 252 256 0
247 253 257 261 266 272 0
248 258 262 0
273 278 300 0
287 292 296 301 0
274 279 283 288 0
293 297 302 0
275 280 284 289 294 298 303 0
276 281 285 290 0
277 282 286 291 295 299 0
-21 -32 0
-21 -44 0
-21 -50 0
-32 -44 0
-32 -50 0
-44 -50 0
-1 -8 0
-1 -38 0
-1 -45 0
-1 -51 0
-8 -38 0
-8 -45 0
-8 -51 0
-38 -45 0
-38 -51 0
-45 -51 0
-2 -9 0
-2 -15 0
-2 -39 0
-2 -46 0
-9 -15 0
-9 -39 0
-9 -46 0
-15 -39 0
-15 -46 0
-39 -46 0
-3 -10 0
-3 -22 0
-3 -33 0
-3 -40 0
-3 -47 0
-3 -52 0
-10 -22 0
-10 -33 0
-10 -40 0
-10 -47 0
-10 -52 0
-22 -33 0
-22 -40 0
-22 -47 0
-22 -52 0
-33 -40 0
-33 -47 0
-33 -52 0
-40 -47 0
-40 -52 0
-47 -52 0
-11 -16 0
-11 -27 0
-11 -34 0
-16 -27 0
-16 -34 0
-27 -34 0
-4 -12 0
-4 -17 0
-4 -23 0
-4 -28 0
-4 -35 0
-4 -41 0
-4 -48 0
-4 -53 0
-12 -17 0
-12 -23 0
-12 -28 0
-12 -35 0
-12 -41 0
-12 -48 0
-12 -53 0
-17 -23 0
-17 -28 0
-17 -35 0
-17 -41 0
-17 -48 0
-17 -53 0
-23 -28 0
-23 -35 0
-23 -41 0
-23 -48 0
-23 -53 0
-28 -35 0
-28 -41 0
-28 -48 0
-28 -53 0
-35 -41 0
-35 -48 0
-35 -53 0
-41 -48 0
-41 -53 0
-48 -53 0
-5 -13 0
-5 -18 0
-5 -24 0
-5 -29 0
-5 -42 0
-5 -54 0
-13 -18 0
-13 -24 0
-13 -29 0
-13 -42 0
-13 -54 0
-18 -24 0
-18 -29 0
-18 -42 0
-18 -54 0
-24 -29 0
-24 -42 0
-24 -54 0
-29 -42 0
-29 -54 0
-42 -54 0
-6 -14 0
-6 -19 0
-6 -25 0
-6 -30 0
-6 -36 0
-14 -19 0
-14 -25 0
-14 -30 0
-14 -36 0
-19 -25 0
-19 -30 0
-19 -36 0
-25 -30 0
-25 -36 0
-30 -36 0
-7 -20 0
-7 -26 0
-7 -31 0
-7 -37 0
-7 -43 0
-7 -49 0
-20 -26 0
-20 -31 0
-20 -37 0
-20 -43 0
-20 -49 0
-26 -31 0
-26 -37 0
-26 -43 0
-26 -49 0
-31 -37 0
-31 -43 0
-31 -49 0
-37 -43 0
-37 -49 0
-43 -49 0
-55 -60 0
-55 -75 0
-60 -75 0
-56 -61 0
-56 -68 0
-56 -76 0
-61 -68 0
-61 -76 0
-68 -76 0
-57 -62 0
-57 -64 0
-57 -69 0
-57 -72 0
-57 -77 0
-62 -64 0
-62 -69 0
-62 -72 0
-62 -77 0
-64 -69 0
-64 -72 0
-64 -77 0
-69 -72 0
-69 -77 0
-72 -77 0
-58 -63 0
-58 -65 0
-58 -70 0
-58 -73 0
-58 -78 0
-63 -65 0
-63 -70 0
-63 -73 0
-63 -78 0
-65 -70 0
-65 -73 0
-65 -78 0
-70 -73 0
-70 -78 0
-73 -78 0
-59 -66 0
-59 -71 0
-59 -74 0
-59 -79 0
-66 -71 0
-66 -74 0
-66 -79 0
-71 -74 0
-71 -79 0
-74 -79 0
-80 -86 0
-80 -102 0
-80 -107 0
-86 -102 0
-86 -107 0
-102 -107 0
-81 -87 0
-81 -92 0
-81 -97 0
-81 -103 0
-81 -108 0
-81 -111 0
-87 -92 0
-87 -97 0
-87 -103 0
-87 -108 0
-87 -111 0
-92 -97 0
-92 -103 0
-92 -108 0
-92 -111 0
-97 -103 0
-97 -108 0
-97 -111 0
-103 -108 0
-103 -111 0
-108 -111 0
-88 -98 0
-82 -89 0
-82 -93 0
-82 -99 0
-82 -104 0
-82 -109 0
-82 -112 0
-89 -93 0
-89 -99 0
-89 -104 0
-89 -109 0
-89 -112 0
-93 -99 0
-93 -104 0
-93 -109 0
-93 -112 0
-99 -104 0
-99 -109 0
-99 -112 0
-104 -109 0
-104 -112 0
-109 -112 0
-83 -90 0
-83 -94 0
-83 -105 0
-83 -113 0
-90 -94 0
-90 -105 0
-90 -113 0
-94 -105 0
-94 -113 0
-105 -113 0
-84 -91 0
-84 -95 0
-84 -100 0
-91 -95 0
-91 -100 0
-95 -100 0
-85 -96 0
-85 -101 0
-85 -106 0
-85 -110 0
-96 -101 0
-96 -106 0
-96 -110 0
-101 -106 0
-101 -110 0
-106 -110 0
-114 -119 0
-115 -120 0
-115 -131 0
-115 -137 0
-115 -142 0
-120 -131 0
-120 -137 0
-120 -142 0
-131 -137 0
-131 -142 0
-137 -142 0
-116 -121 0
-116 -124 0
-116 -127 0
-116 -132 0
-116 -138 0
-121 -124 0
-121 -127 0
-121 -132 0
-121 -138 0
-124 -127 0
-124 -132 0
-124 -138 0
-127 -132 0
-127 -138 0
-132 -138 0
-133 -139 0
-133 -143 0
-139 -143 0
-117 -122 0
-117 -125 0
-117 -128 0
-117 -134 0
-117 -140 0
-117 -144 0
-122 -125 0
-122 -128 0
-122 -134 0
-122 -140 0
-122 -144 0
-125 -128 0
-125 -134 0
-125 -140 0
-125 -144 0
-128 -134 0
-128 -140 0
-128 -144 0
-134 -140 0
-134 -144 0
-140 -144 0
-118 -123 0
-118 -126 0
-118 -129 0
-118 -135 0
-118 -145 0
-123 -126 0
-123 -129 0
-123 -135 0
-123 -145 0
-126 -129 0
-126 -135 0
-126 -145 0
-129 -135 0
-129 -145 0
-135 -145 0
-130 -136 0
-130 -141 0
-136 -141 0
-146 -151 0
-146 -157 0
-146 -166 0
-146 -170 0
-146 -175 0
-151 -157 0
-151 -166 0
-151 -170 0
-151 -175 0
-157 -166 0
-157 -170 0
-157 -175 0
-166 -170 0
-166 -175 0
-170 -175 0
-147 -152 0
-147 -158 0
-147 -162 0
-147 -171 0
-152 -158 0
-152 -162 0
-152 -171 0
-158 -162 0
-158 -171 0
-162 -171 0
-153 -172 0
-148 -154 0
-148 -159 0
-148 -163 0
-148 -167 0
-148 -173 0
-148 -176 0
-154 -159 0
-154 -163 0
-154 -167 0
-154 -173 0
-154 -176 0
-159 -163 0
-159 -167 0
-159 -173 0
-159 -176 0
-163 -167 0
-163 -173 0
-163 -176 0
-167 -173 0
-167 -176 0
-173 -176 0
-149 -155 0
-149 -177 0
-155 -177 0
-150 -156 0
-150 -160 0
-150 -164 0
-150 -168 0
-150 -178 0
-156 -160 0
-156 -164 0
-156 -168 0
-156 -178 0
-160 -164 0
-160 -168 0
-160 -178 0
-164 -168 0
-164 -178 0
-168 -178 0
-161 -165 0
-161 -169 0
-161 -174 0
-165 -169 0
-165 -174 0
-169 -174 0
-179 -190 0
-179 -199 0
-190 -199 0
-180 -191 0
-180 -200 0
-180 -204 0
-180 -211 0
-180 -216 0
-191 -200 0
-191 -204 0
-191 -211 0
-191 -216 0
-200 -204 0
-200 -211 0
-200 -216 0
-204 -211 0
-204 -216 0
-211 -216 0
-181 -185 0
-181 -192 0
-181 -196 0
-181 -205 0
-181 -212 0
-185 -192 0
-185 -196 0
-185 -205 0
-185 -212 0
-192 -196 0
-192 -205 0
-192 -212 0
-196 -205 0
-196 -212 0
-205 -212 0
-193 -201 0
-193 -206 0
-193 -213 0
-193 -217 0
-201 -206 0
-201 -213 0
-201 -217 0
-206 -213 0
-206 -217 0
-213 -217 0
-186 -207 0
-186 -214 0
-207 -214 0
-182 -187 0
-182 -194 0
-182 -197 0
-182 -202 0
-182 -208 0
-182 -215 0
-182 -218 0
-187 -194 0
-187 -197 0
-187 -202 0
-187 -208 0
-187 -215 0
-187 -218 0
-194 -197 0
-194 -202 0
-194 -208 0
-194 -215 0
-194 -218 0
-197 -202 0
-197 -208 0
-197 -215 0
-197 -218 0
-202 -208 0
-202 -215 0
-202 -218 0
-208 -215 0
-208 -218 0
-215 -218 0
-183 -188 0
-183 -209 0
-183 -219 0
-188 -209 0
-188 -219 0
-209 -219 0
-184 -189 0
-184 -195 0
-184 -198 0
-184 -203 0
-184 -210 0
-184 -220 0
-189 -195 0
-189 -198 0
-189 -203 0
-189 -210 0
-189 -220 0
-195 -198 0
-195 -203 0
-195 -210 0
-195 -220 0
-198 -203 0
-198 -210 0
-198 -220 0
-203 -210 0
-203 -220 0
-210 -220 0
-228 -235 0
-228 -239 0
-235 -239 0
-222 -240 0
-223 -225 0
-223 -229 0
-223 -232 0
-223 -236 0
-223 -241 0
-225 -229 0
-225 -232 0
-225 -236 0
-225 -241 0
-229 -232 0
-229 -236 0
-229 -241 0
-232 -236 0
-232 -241 0
-236 -241 0
-224 -226 0
-224 -230 0
-224 -233 0
-224 -237 0
-224 -242 0
-226 -230 0
-226 -233 0
-226 -237 0
-226 -242 0
-230 -233 0
-230 -237 0
-230 -242 0
-233 -237 0
-233 -242 0
-237 -242 0
-227 -231 0
-227 -234 0
-227 -238 0
-231 -234 0
-231 -238 0
-234 -238 0
-243 -249 0
-243 -254 0
-249 -254 0
-244 -250 0
-244 -263 0
-244 -267 0
-244 -270 0
-250 -263 0
-250 -267 0
-250 -270 0
-263 -267 0
-263 -270 0
-267 -270 0
-259 -264 0
-259 -268 0
-264 -268 0
-245 -251 0
-245 -255 0
-245 -260 0
-245 -265 0
-245 -269 0
-245 -271 0
-251 -255 0
-251 -260 0
-251 -265 0
-251 -269 0
-251 -271 0
-255 -260 0
-255 -265 0
-255 -269 0
-255 -271 0
-260 -265 0
-260 -269 0
-260 -271 0
-265 -269 0
-265 -271 0
-269 -271 0
-246 -252 0
-246 -256 0
-252 -256 0
-247 -253 0
-247 -257 0
-247 -261 0
-247 -266 0
-247 -272 0
-253 -257 0
-253 -261 0
-253 -266 0
-253 -272 0
-257 -261 0
-257 -266 0
-257 -272 0
-261 -266 0
-261 -272 0
-266 -272 0
-248 -258 0
-248 -262 0
-258 -262 0
-273 -278 0
-273 -300 0
-278 -300 0
-287 -292 0
-287 -296 0
-287 -301 0
-292 -296 0
-292 -301 0
-296 -301 0
-274 -279 0
-274 -283 0
-274 -288 0
-279 -283 0
-279 -288 0
-283 -288 0
-293 -297 0
-293 -302 0
-297 -302 0
-275 -280 0
-275 -284 0
-275 -289 0
-275 -294 0
-275 -298 0
-275 -303 0
-280 -284 0
-280 -289 0
-280 -294 0
-280 -298 0
-280 -303 0
-284 -289 0
-284 -294 0
-284 -298 0
-284 -303 0
-289 -294 0
-289 -298 0
-289 -303 0
-294 -298 0
-294 -303 0
-298 -303 0
-276 -281 0
-276 -285 0
-276 -290 0
-281 -285 0
-281 -290 0
-285 -290 0
-277 -282 0
-277 -286 0
-277 -291 0
-277 -295 0
-277 -299 0
-282 -286 0
-282 -291 0
-282 -295 0
-282 -299 0
-286 -291 0
-286 -295 0
-286 -299 0
-291 -295 0
-291 -299 0
-295 -299 0
114 179 273 0
1 55 115 146 180 0
2 80 116 147 181 243 274 0
3 56 81 244 0
4 57 82 117 148 182 245 275 0
5 58 83 149 183 246 276 0
6 84 118 150 184 247 277 0
7 59 85 248 0
119 221 278 0
8 60 120 151 0
9 86 121 152 249 279 0
10 61 87 222 250 0
11 88 153 0
12 62 89 122 154 223 251 280 0
13 63 90 155 252 281 0
14 91 123 156 224 253 282 0
15 124 185 283 0
16 186 0
17 64 125 187 225 284 0
18 65 188 285 0
19 126 189 226 286 0
20 66 227 0
21 67 190 0
157 191 228 287 0
158 192 254 288 0
22 68 92 193 0
23 69 93 159 194 229 255 289 0
24 70 94 256 290 0
25 95 160 195 230 257 291 0
26 71 96 161 231 258 0
127 162 196 0
27 0
28 72 128 163 197 232 0
29 73 0
30 129 164 198 233 0
31 74 130 165 234 0
32 199 0
166 200 235 292 0
33 97 201 0
34 98 259 293 0
35 99 167 202 236 260 294 0
36 100 168 203 237 261 295 0
37 101 169 238 262 0
38 75 131 204 239 296 0
39 102 132 205 0
40 76 103 133 206 240 263 0
207 264 297 0
41 77 104 134 208 241 265 298 0
42 78 105 209 0
135 210 242 266 299 0
43 79 106 136 0
44 300 0
45 137 170 211 301 0
46 107 138 171 212 0
47 108 139 213 267 0
172 214 268 302 0
48 109 140 173 215 269 303 0
49 110 141 174 0
50 0
51 142 175 216 0
52 111 143 217 270 0
53 112 144 176 218 271 0
54 113 177 219 0
145 178 220 272 0
-114 -179 0
-114 -273 0
-179 -273 0
-1 -55 0
-1 -115 0
-1 -146 0
-1 -180 0
-55 -115 0
-55 -146 0
-55 -180 0
-115 -146 0
-115 -180 0
-146 -180 0
-2 -80 0
-2 -116 0
-2 -147 0
-2 -181 0
-2 -243 0
-2 -274 0
-80 -116 0
-80 -147 0
-80 -181 0
-80 -243 0
-80 -274 0
-116 -147 0
-116 -181 0
-116 -243 0
-116 -274 0
-147 -181 0
-147 -243 0
-147 -274 0
-181 -243 0
-181 -274 0
-243 -274 0
-3 -56 0
-3 -81 0
-3 -244 0
-56 -81 0
-56 -244 0
-81 -244 0
-4 -57 0
-4 -82 0
-4 -117 0
-4 -148 0
-4 -182 0
-4 -245 0
-4 -275 0
-57 -82 0
-57 -117 0
-57 -148 0
-57 -182 0
-57 -245 0
-57 -275 0
-82 -117 0
-82 -148 0
-82 -182 0
-82 -245 0
-82 -275 0
-117 -148 0
-117 -182 0
-117 -245 0
-117 -275 0
-148 -182 0
-148 -245 0
-148 -275 0
-182 -245 0
-182 -275 0
-245 -275 0
-5 -58 0
-5 -83 0
-5 -149 0
-5 -183 0
-5 -246 0
-5 -276 0
-58 -83 0
-58 -149 0
-58 -183 0
-58 -246 0
-58 -276 0
-83 -149 0
-83 -183 0
-83 -246 0
-83 -276 0
-149 -183 0
-149 -246 0
-149 -276 0
-183 -246 0
-183 -276 0
-246 -276 0
-6 -84 0
-6 -118 0
-6 -150 0
-6 -184 0
-6 -247 0
-6 -277 0
-84 -118 0
-84 -150 0
-84 -184 0
-84 -247 0
-84 -277 0
-118 -150 0
-118 -184 0
-118 -247 0
-118 -277 0
-150 -184 0
-150 -247 0
-150 -277 0
-184 -247 0
-184 -277 0
-247 -277 0
-7 -59 0
-7 -85 0
-7 -248 0
-59 -85 0
-59 -248 0
-85 -248 0
-119 -221 0
-119 -278 0
-221 -278 0
-8 -60 0
-8 -120 0
-8 -151 0
-60 -120 0
-60 -151 0
-120 -151 0
-9 -86 0
-9 -121 0
-9 -152 0
-9 -249 0
-9 -279 0
-86 -121 0
-86 -152 0
-86 -249 0
-86 -279 0
-121 -152 0
-121 -249 0
-121 -279 0
-152 -249 0
-152 -279 0
-249 -279 0
-10 -61 0
-10 -87 0
-10 -222 0
-10 -250 0
-61 -87 0
-61 -222 0
-61 -250 0
-87 -222 0
-87 -250 0
-222 -250 0
-11 -88 0
-11 -153 0
-88 -153 0
-12 -62 0
-12 -89 0
-12 -122 0
-12 -154 0
-12 -223 0
-12 -251 0
-12 -280 0
-62 -89 0
-62 -122 0
-62 -154 0
-62 -223 0
-62 -251 0
-62 -280 0
-89 -122 0
-89 -154 0
-89 -223 0
-89 -251 0
-89 -280 0
-122 -154 0
-122 -223 0
-122 -251 0
-122 -280 0
-154 -223 0
-154 -251 0
-154 -280 0
-223 -251 0
-223 -280 0
-251 -280 0
-13 -63 0
-13 -90 0
-13 -155 0
-13 -252 0
-13 -281 0
-63 -90 0
-63 -155 0
-63 -252 0
-63 -281 0
-90 -155 0
-90 -252 0
-90 -281 0
-155 -252 0
-155 -281 0
-252 -281 0
-14 -91 0
-14 -123 0
-14 -156 0
-14 -224 0
-14 -253 0
-14 -282 0
-91 -123 0
-91 -156 0
-91 -224 0
-91 -253 0
-91 -282 0
-123 -156 0
-123 -224 0
-123 -253 0
-123 -282 0
-156 -224 0
-156 -253 0
-156 -282 0
-224 -253 0
-224 -282 0
-253 -282 0
-15 -124 0
-15 -185 0
-15 -283 0
-124 -185 0
-124 -283 0
-185 -283 0
-16 -186 0
-17 -64 0
-17 -125 0
-17 -187 0
-17 -225 0
-17 -284 0
-64 -125 0
-64 -187 0
-64 -225 0
-64 -284 0
-125 -187 0
-125 -225 0
-125 -284 0
-187 -225 0
-187 -284 0
-225 -284 0
-18 -65 0
-18 -188 0
-18 -285 0
-65 -188 0
-65 -285 0
-188 -285 0
-19 -126 0
-19 -189 0
-19 -226 0
-19 -286 0
-126 -189 0
-126 -226 0
-126 -286 0
-189 -226 0
-189 -286 0
-226 -286 0
-20 -66 0
-20 -227 0
-66 -227 0
-21 -67 0
-21 -190 0
-67 -190 0
-157 -191 0
-157 -228 0
-157 -287 0
-191 -228 0
-191 -287 0
-228 -287 0
-158 -192 0
-158 -254 0
-158 -288 0
-192 -254 0
-192 -288 0
-254 -288 0
-22 -68 0
-22 -92 0
-22 -193 0
-68 -92 0
-68 -193 0
-92 -193 0
-23 -69 0
-23 -93 0
-23 -159 0
-23 -194 0
-23 -229 0
-23 -255 0
-23 -289 0
-69 -93 0
-69 -159 0
-69 -194 0
-69 -229 0
-69 -255 0
-69 -289 0
-93 -159 0
-93 -194 0
-93 -229 0
-93 -255 0
-93 -289 0
-159 -194 0
-159 -229 0
-159 -255 0
-159 -289 0
-194 -229 0
-194 -255 0
-194 -289 0
-229 -255 0
-229 -289 0
-255 -289 0
-24 -70 0
-24 -94 0
-24 -256 0
-24 -290 0
-70 -94 0
-70 -256 0
-70 -290 0
-94 -256 0
-94 -290 0
-256 -290 0
-25 -95 0
-25 -160 0
-25 -195 0
-25 -230 0
-25 -257 0
-25 -291 0
-95 -160 0
-95 -195 0
-95 -230 0
-95 -257 0
-95 -291 0
-160 -195 0
-160 -230 0
-160 -257 0
-160 -291 0
-195 -230 0
-195 -257 0
-195 -291 0
-230 -257 0
-230 -291 0
-257 -291 0
-26 -71 0
-26 -96 0
-26 -161 0
-26 -231 0
-26 -258 0
-71 -96 0
-71 -161 0
-71 -231 0
-71 -258 0
-96 -161 0
-96 -231 0
-96 -258 0
-161 -231 0
-161 -258 0
-231 -258 0
-127 -162 0
-127 -196 0
-162 -196 0
-28 -72 0
-28 -128 0
-28 -163 0
-28 -197 0
-28 -232 0
-72 -128 0
-72 -163 0
-72 -197 0
-72 -232 0
-128 -163 0
-128 -197 0
-128 -232 0
-163 -197 0
-163 -232 0
-197 -232 0
-29 -73 0
-30 -129 0
-30 -164 0
-30 -198 0
-30 -233 0
-129 -164 0
-129 -198 0
-129 -233 0
-164 -198 0
-164 -233 0
-198 -233 0
-31 -74 0
-31 -130 0
-31 -165 0
-31 -234 0
-74 -130 0
-74 -165 0
-74 -234 0
-130 -165 0
-130 -234 0
-165 -234 0
-32 -199 0
-166 -200 0
-166 -235 0
-166 -292 0
-200 -235 0
-200 -292 0
-235 -292 0
-33 -97 0
-33 -201 0
-97 -201 0
-34 -98 0
-34 -259 0
-34 -293 0
-98 -259 0
-98 -293 0
-259 -293 0
-35 -99 0
-35 -167 0
-35 -202 0
-35 -236 0
-35 -260 0
-35 -294 0
-99 -167 0
-99 -202 0
-99 -236 0
-99 -260 0
-99 -294 0
-167 -202 0
-167 -236 0
-167 -260 0
-167 -294 0
-202 -236 0
-202 -260 0
-202 -294 0
-236 -260 0
-236 -294 0
-260 -294 0
-36 -100 0
-36 -168 0
-36 -203 0
-36 -237 0
-36 -261 0
-36 -295 0
-100 -168 0
-100 -203 0
-100 -237 0
-100 -261 0
-100 -295 0
-168 -203 0
-168 -237 0
-168 -261 0
-168 -295 0
-203 -237 0
-203 -261 0
-203 -295 0
-237 -261 0
-237 -295 0
-261 -295 0
-37 -101 0
-37 -169 0
-37 -238 0
-37 -262 0
-101 -169 0
-101 -238 0
-101 -262 0
-169 -238 0
-169 -262 0
-238 -262 0
-38 -75 0
-38 -131 0
-38 -204 0
-38 -239 0
-38 -296 0
-75 -131 0
-75 -204 0
-75 -239 0
-75 -296 0
-131 -204 0
-131 -239 0
-131 -296 0
-204 -239 0
-204 -296 0
-239 -296 0
-39 -102 0
-39 -132 0
-39 -205 0
-102 -132 0
-102 -205 0
-132 -205 0
-40 -76 0
-40 -103 0
-40 -133 0
-40 -206 0
-40 -240 0
-40 -263 0
-76 -103 0
-76 -133 0
-76 -206 0
-76 -240 0
-76 -263 0
-103 -133 0
-103 -206 0
-103 -240 0
-103 -263 0
-133 -206 0
-133 -240 0
-133 -263 0
-206 -240 0
-206 -263 0
-240 -263 0
-207 -264 0
-207 -297 0
-264 -297 0
-41 -77 0
-41 -104 0
-41 -134 0
-41 -208 0
-41 -241 0
-41 -265 0
-41 -298 0
-77 -104 0
-77 -134 0
-77 -208 0
-77 -241 0
-77 -265 0
-77 -298 0
-104 -134 0
-104 -208 0
-104 -241 0
-104 -265 0
-104 -298 0
-134 -208 0
-134 -241 0
-134 -265 0
-134 -298 0
-208 -241 0
-208 -265 0
-208 -298 0
-241 -265 0
-241 -298 0
-265 -298 0
-42 -78 0
-42 -105 0
-42 -209 0
-78 -105 0
-78 -209 0
-105 -209 0
-135 -210 0
-135 -242 0
-135 -266 0
-135 -299 0
-210 -242 0
-210 -266 0
-210 -299 0
-242 -266 0
-242 -299 0
-266 -299 0
-43 -79 0
-43 -106 0
-43 -136 0
-79 -106 0
-79 -136 0
-106 -136 0
-44 -300 0
-45 -137 0
-45 -170 0
-45 -211 0
-45 -301 0
-137 -170 0
-137 -211 0
-137 -301 0
-170 -211 0
-170 -301 0
-211 -301 0
-46 -107 0
-46 -138 0
-46 -171 0
-46 -212 0
-107 -138 0
-107 -171 0
-107 -212 0
-138 -171 0
-138 -212 0
-171 -212 0
-47 -108 0
-47 -139 0
-47 -213 0
-47 -267 0
-108 -139 0
-108 -213 0
-108 -267 0
-139 -213 0
-139 -267 0
-213 -267 0
-172 -214 0
-172 -268 0
-172 -302 0
-214 -268 0
-214 -302 0
-268 -302 0
-48 -109 0
-48 -140 0
-48 -173 0
-48 -215 0
-48 -269 0
-48 -303 0
-109 -140 0
-109 -173 0
-109 -215 0
-109 -269 0
-109 -303 0
-140 -173 0
-140 -215 0
-140 -269 0
-140 -303 0
-173 -215 0
-173 -269 0
-173 -303 0
-215 -269 0
-215 -303 0
-269 -303 0
-49 -110 0
-49 -141 0
-49 -174 0
-110 -141 0
-110 -174 0
-141 -174 0
-51 -142 0
-51 -175 0
-51 -216 0
-142 -175 0
-142 -216 0
-175 -216 0
-52 -111 0
-52 -143 0
-52 -217 0
-52 -270 0
-111 -143 0
-111 -217 0
-111 -270 0
-143 -217 0
-143 -270 0
-217 -270 0
-53 -112 0
-53 -144 0
-53 -176 0
-53 -218 0
-53 -271 0
-112 -144 0
-112 -176 0
-112 -218 0
-112 -271 0
-144 -176 0
-144 -218 0
-144 -271 0
-176 -218 0
-176 -271 0
-218 -271 0
-54 -113 0
-54 -177 0
-54 -219 0
-113 -177 0
-113 -219 0
-177 -219 0
-145 -178 0
-145 -220 0
-145 -272 0
-178 -220 0
-178 -272 0
-220 -272 0
1 8 55 60 0
2 9 15 80 86 0
3 10 56 61 81 87 0
11 16 88 0
4 12 17 57 62 64 82 89 0
5 13 18 58 63 65 83 90 0
6 14 19 84 91 0
7 20 59 66 85 0
21 32 67 0
22 33 68 92 97 0
27 34 98 0
23 28 35 69 72 93 99 0
24 29 70 73 94 0
25 30 36 95 100 0
26 31 37 71 74 96 101 0
44 50 0
38 45 51 75 0
39 46 102 107 0
40 47 52 76 103 108 111 0
41 48 53 77 104 109 112 0
42 54 78 105 113 0
43 49 79 106 110 0
114 119 179 0
115 120 146 151 180 0
116 121 124 147 152 181 185 0
153 186 0
117 122 125 148 154 182 187 0
149 155 183 188 0
118 123 126 150 156 184 189 0
190 199 0
157 166 191 200 0
127 158 162 192 196 0
193 201 0
128 159 163 167 194 197 202 0
129 160 164 168 195 198 203 0
130 161 165 169 0
131 137 142 170 175 204 211 216 0
132 138 171 205 212 0
133 139 143 206 213 217 0
172 207 214 0
134 140 144 173 176 208 215 218 0
177 209 219 0
135 145 178 210 220 0
136 141 174 0
221 273 278 0
243 249 274 279 283 0
222 244 250 0
223 225 245 251 275 280 284 0
246 252 276 281 285 0
224 226 247 253 277 282 286 0
227 248 0
228 235 287 292 0
254 288 0
259 293 0
229 232 236 255 260 289 294 0
256 290 0
230 233 237 257 261 291 295 0
231 234 238 258 262 0
300 0
239 296 301 0
240 263 267 270 0
264 268 297 302 0
241 265 269 271 298 303 0
242 266 272 299 0
-1 -8 0
-1 -55 0
-1 -60 0
-8 -55 0
-8 -60 0
-55 -60 0
-2 -9 0
-2 -15 0
-2 -80 0
-2 -86 0
-9 -15 0
-9 -80 0
-9 -86 0
-15 -80 0
-15 -86 0
-80 -86 0
-3 -10 0
-3 -56 0
-3 -61 0
-3 -81 0
-3 -87 0
-10 -56 0
-10 -61 0
-10 -81 0
-10 -87 0
-56 -61 0
-56 -81 0
-56 -87 0
-61 -81 0
-61 -87 0
-81 -87 0
-11 -16 0
-11 -88 0
-16 -88 0
-4 -12 0
-4 -17 0
-4 -57 0
-4 -62 0
-4 -64 0
-4 -82 0
-4 -89 0
-12 -17 0
-12 -57 0
-12 -62 0
-12 -64 0
-12 -82 0
-12 -89 0
-17 -57 0
-17 -62 0
-17 -64 0
-17 -82 0
-17 -89 0
-57 -62 0
-57 -64 0
-57 -82 0
-57 -89 0
-62 -64 0
-62 -82 0
-62 -89 0
-64 -82 0
-64 -89 0
-82 -89 0
-5 -13 0
-5 -18 0
-5 -58 0
-5 -63 0
-5 -65 0
-5 -83 0
-5 -90 0
-13 -18 0
-13 -58 0
-13 -63 0
-13 -65 0
-13 -83 0
-13 -90 0
-18 -58 0
-18 -63 0
-18 -65 0
-18 -83 0
-18 -90 0
-58 -63 0
-58 -65 0
-58 -83 0
-58 -90 0
-63 -65 0
-63 -83 0
-63 -90 0
-65 -83 0
-65 -90 0
-83 -90 0
-6 -14 0
-6 -19 0
-6 -84 0
-6 -91 0
-14 -19 0
-14 -84 0
-14 -91 0
-19 -84 0
-19 -91 0
-84 -91 0
-7 -20 0
-7 -59 0
-7 -66 0
-7 -85 0
-20 -59 0
-20 -66 0
-20 -85 0
-59 -66 0
-59 -85 0
-66 -85 0
-21 -32 0
-21 -67 0
-32 -67 0
-22 -33 0
-22 -68 0
-22 -92 0
-22 -97 0
-33 -68 0
-33 -92 0
-33 -97 0
-68 -92 0
-68 -97 0
-92 -97 0
-27 -34 0
-27 -98 0
-34 -98 0
-23 -28 0
-23 -35 0
-23 -69 0
-23 -72 0
-23 -93 0
-23 -99 0
-28 -35 0
-28 -69 0
-28 -72 0
-28 -93 0
-28 -99 0
-35 -69 0
-35 -72 0
-35 -93 0
-35 -99 0
-69 -72 0
-69 -93 0
-69 -99 0
-72 -93 0
-72 -99 0
-93 -99 0
-24 -29 0
-24 -70 0
-24 -73 0
-24 -94 0
-29 -70 0
-29 -73 0
-29 -94 0
-70 -73 0
-70 -94 0
-73 -94 0
-25 -30 0
-25 -36 0
-25 -95 0
-25 -100 0
-30 -36 0
-30 -95 0
-30 -100 0
-36 -95 0
-36 -100 0
-95 -100 0
-26 -31 0
-26 -37 0
-26 -71 0
-26 -74 0
-26 -96 0
-26 -101 0
-31 -37 0
-31 -71 0
-31 -74 0
-31 -96 0
-31 -101 0
-37 -71 0
-37 -74 0
-37 -96 0
-37 -101 0
-71 -74 0
-71 -96 0
-71 -101 0
-74 -96 0
-74 -101 0
-96 -101 0
-44 -50 0
-38 -45 0
-38 -51 0
-38 -75 0
-45 -51 0
-45 -75 0
-51 -75 0
-39 -46 0
-39 -102 0
-39 -107 0
-46 -102 0
-46 -107 0
-102 -107 0
-40 -47 0
-40 -52 0
-40 -76 0
-40 -103 0
-40 -108 0
-40 -111 0
-47 -52 0
-47 -76 0
-47 -103 0
-47 -108 0
-47 -111 0
-52 -76 0
-52 -103 0
-52 -108 0
-52 -111 0
-76 -103 0
-76 -108 0
-76 -111 0
-103 -108 0
-103 -111 0
-108 -111 0
-41 -48 0
-41 -53 0
-41 -77 0
-41 -104 0
-41 -109 0
-41 -112 0
-48 -53 0
-48 -77 0
-48 -104 0
-48 -109 0
-48 -112 0
-53 -77 0
-53 -104 0
-53 -109 0
-53 -112 0
-77 -104 0
-77 -109 0
-77 -112 0
-104 -109 0
-104 -112 0
-109 -112 0
-42 -54 0
-42 -78 0
-42 -105 0
-42 -113 0
-54 -78 0
-54 -105 0
-54 -113 0
-78 -105 0
-78 -113 0
-105 -113 0
-43 -49 0
-43 -79 0
-43 -106 0
-43 -110 0
-49 -79 0
-49 -106 0
-49 -110 0
-79 -106 0
-79 -110 0
-106 -110 0
-114 -119 0
-114 -179 0
-119 -179 0
-115 -120 0
-115 -146 0
-115 -151 0
-115 -180 0
-120 -146 0
-120 -151 0
-120 -180 0
-146 -151 0
-146 -180 0
-151 -180 0
-116 -121 0
-116 -124 0
-116 -147 0
-116 -152 0
-116 -181 0
-116 -185 0
-121 -124 0
-121 -147 0
-121 -152 0
-121 -181 0
-121 -185 0
-124 -147 0
-124 -152 0
-124 -181 0
-124 -185 0
-147 -152 0
-147 -181 0
-147 -185 0
-152 -181 0
-152 -185 0
-181 -185 0
-153 -186 0
-117 -122 0
-117 -125 0
-117 -148 0
-117 -154 0
-117 -182 0
-117 -187 0
-122 -125 0
-122 -148 0
-122 -154 0
-122 -182 0
-122 -187 0
-125 -148 0
-125 -154 0
-125 -182 0
-125 -187 0
-148 -154 0
-148 -182 0
-148 -187 0
-154 -182 0
-154 -187 0
-182 -187 0
-149 -155 0
-149 -183 0
-149 -188 0
-155 -183 0
-155 -188 0
-183 -188 0
-118 -123 0
-118 -126 0
-118 -150 0
-118 -156 0
-118 -184 0
-118 -189 0
-123 -126 0
-123 -150 0
-123 -156 0
-123 -184 0
-123 -189 0
-126 -150 0
-126 -156 0
-126 -184 0
-126 -189 0
-150 -156 0
-150 -184 0
-150 -189 0
-156 -184 0
-156 -189 0
-184 -189 0
-190 -199 0
-157 -166 0
-157 -191 0
-157 -200 0
-166 -191 0
-166 -200 0
-191 -200 0
-127 -158 0
-127 -162 0
-127 -192 0
-127 -196 0
-158 -162 0
-158 -192 0
-158 -196 0
-162 -192 0
-162 -196 0
-192 -196 0
-193 -201 0
-128 -159 0
-128 -163 0
-128 -167 0
-128 -194 0
-128 -197 0
-128 -202 0
-159 -163 0
-159 -167 0
-159 -194 0
-159 -197 0
-159 -202 0
-163 -167 0
-163 -194 0
-163 -197 0
-163 -202 0
-167 -194 0
-167 -197 0
-167 -202 0
-194 -197 0
-194 -202 0
-197 -202 0
-129 -160 0
-129 -164 0
-129 -168 0
-129 -195 0
-129 -198 0
-129 -203 0
-160 -164 0
-160 -168 0
-160 -195 0
-160 -198 0
-160 -203 0
-164 -168 0
-164 -195 0
-164 -198 0
-164 -203 0
-168 -195 0
-168 -198 0
-168 -203 0
-195 -198 0
-195 -203 0
-198 -203 0
-130 -161 0
-130 -165 0
-130 -169 0
-161 -165 0
-161 -169 0
-165 -169 0
-131 -137 0
-131 -142 0
-131 -170 0
-131 -175 0
-131 -204 0
-131 -211 0
-131 -216 0
-137 -142 0
-137 -170 0
-137 -175 0
-137 -204 0
-137 -211 0
-137 -216 0
-142 -170 0
-142 -175 0
-142 -204 0
-142 -211 0
-142 -216 0
-170 -175 0
-170 -204 0
-170 -211 0
-170 -216 0
-175 -204 0
-175 -211 0
-175 -216 0
-204 -211 0
-204 -216 0
-211 -216 0
-132 -138 0
-132 -171 0
-132 -205 0
-132 -212 0
-138 -171 0
-138 -205 0
-138 -212 0
-171 -205 0
-171 -212 0
-205 -212 0
-133 -139 0
-133 -143 0
-133 -206 0
-133 -213 0
-133 -217 0
-139 -143 0
-139 -206 0
-139 -213 0
-139 -217 0
-143 -206 0
-143 -213 0
-143 -217 0
-206 -213 0
-206 -217 0
-213 -217 0
-172 -207 0
-172 -214 0
-207 -214 0
-134 -140 0
-134 -144 0
-134 -173 0
-134 -176 0
-134 -208 0
-134 -215 0
-134 -218 0
-140 -144 0
-140 -173 0
-140 -176 0
-140 -208 0
-140 -215 0
-140 -218 0
-144 -173 0
-144 -176 0
-144 -208 0
-144 -215 0
-144 -218 0
-173 -176 0
-173 -208 0
-173 -215 0
-173 -218 0
-176 -208 0
-176 -215 0
-176 -218 0
-208 -215 0
-208 -218 0
-215 -218 0
-177 -209 0
-177 -219 0
-209 -219 0
-135 -145 0
-135 -178 0
-135 -210 0
-135 -220 0
-145 -178 0
-145 -210 0
-145 -220 0
-178 -210 0
-178 -220 0
-210 -220 0
-136 -141 0
-136 -174 0
-141 -174 0
-221 -273 0
-221 -278 0
-273 -278 0
-243 -249 0
-243 -274 0
-243 -279 0
-243 -283 0
-249 -274 0
-249 -279 0
-249 -283 0
-274 -279 0
-274 -283 0
-279 -283 0
-222 -244 0
-222 -250 0
-244 -250 0
-223 -225 0
-223 -245 0
-223 -251 0
-223 -275 0
-223 -280 0
-223 -284 0
-225 -245 0
-225 -251 0
-225 -275 0
-225 -280 0
-225 -284 0
-245 -251 0
-245 -275 0
-245 -280 0
-245 -284 0
-251 -275 0
-251 -280 0
-251 -284 0
-275 -280 0
-275 -284 0
-280 -284 0
-246 -252 0
-246 -276 0
-246 -281 0
-246 -285 0
-252 -276 0
-252 -281 0
-252 -285 0
-276 -281 0
-276 -285 0
-281 -285 0
-224 -226 0
-224 -247 0
-224 -253 0
-224 -277 0
-224 -282 0
-224 -286 0
-226 -247 0
-226 -253 0
-226 -277 0
-226 -282 0
-226 -286 0
-247 -253 0
-247 -277 0
-247 -282 0
-247 -286 0
-253 -277 0
-253 -282 0
-253 -286 0
-277 -282 0
-277 -286 0
-282 -286 0
-227 -248 0
-228 -235 0
-228 -287 0
-228 -292 0
-235 -287 0
-235 -292 0
-287 -292 0
-254 -288 0
-259 -293 0
-229 -232 0
-229 -236 0
-229 -255 0
-229 -260 0
-229 -289 0
-229 -294 0
-232 -236 0
-232 -255 0
-232 -260 0
-232 -289 0
-232 -294 0
-236 -255 0
-236 -260 0
-236 -289 0
-236 -294 0
-255 -260 0
-255 -289 0
-255 -294 0
-260 -289 0
-260 -294 0
-289 -294 0
-256 -290 0
-230 -233 0
-230 -237 0
-230 -257 0
-230 -261 0
-230 -291 0
-230 -295 0
-233 -237 0
-233 -257 0
-233 -261 0
-233 -291 0
-233 -295 0
-237 -257 0
-237 -261 0
-237 -291 0
-237 -295 0
-257 -261 0
-257 -291 0
-257 -295 0
-261 -291 0
-261 -295 0
-291 -295 0
-231 -234 0
-231 -238 0
-231 -258 0
-231 -262 0
-234 -238 0
-234 -258 0
-234 -262 0
-238 -258 0
-238 -262 0
-258 -262 0
-239 -296 0
-239 -301 0
-296 -301 0
-240 -263 0
-240 -267 0
-240 -270 0
-263 -267 0
-263 -270 0
-267 -270 0
-264 -268 0
-264 -297 0
-264 -302 0
-268 -297 0
-268 -302 0
-297 -302 0
-241 -265 0
-241 -269 0
-241 -271 0
-241 -298 0
-241 -303 0
-265 -269 0
-265 -271 0
-265 -298 0
-265 -303 0
-269 -271 0
-269 -298 0
-269 -303 0
-271 -298 0
-271 -303 0
-298 -303 0
-242 -266 0
-242 -272 0
-242 -299 0
-266 -272 0
-266 -299 0
-272 -299 0
